10
1 0 45
2 0 134
2 1 34
3 0 148
3 1 55
3 2 31
4 0 12
4 1 132
4 2 5
4 3 100
5 0 19
5 1 150
5 2 144
5 3 3
5 4 14
6 0 114
6 1 91
6 2 35
6 3 118
6 4 61
6 5 76
7 0 156
7 1 20
7 2 75
7 3 29
7 4 154
7 5 75
7 6 120
8 0 75
8 1 130
8 2 71
8 3 48
8 4 138
8 5 109
8 6 15
8 7 113
9 0 51
9 1 143
9 2 126
9 3 89
9 4 26
9 5 77
9 6 157
9 7 139
9 8 86
